MOSEK Version 10.1.16 (Build date: 2023-10-26 08:09:35)
Copyright (c) MOSEK ApS, Denmark WWW: mosek.com
Platform: Linux/64-X86

Problem
  Name                   :                 
  Objective sense        : minimize        
  Type                   : CONIC (conic optimization problem)
  Constraints            : 19988           
  Affine conic cons.     : 0               
  Disjunctive cons.      : 0               
  Cones                  : 0               
  Scalar variables       : 0               
  Matrix variables       : 1999 (scalarized: 41968)
  Integer variables      : 0               

Optimizer started.
Presolve started.
Linear dependency checker started.
Linear dependency checker terminated.
Eliminator started.
Freed constraints in eliminator : 0
Eliminator terminated.
Eliminator - tries                  : 1                 time                   : 0.00            
Lin. dep.  - tries                  : 1                 time                   : 0.00            
Lin. dep.  - primal attempts        : 1                 successes              : 1               
Lin. dep.  - dual attempts          : 0                 successes              : 0               
Lin. dep.  - primal deps.           : 0                 dual deps.             : 0               
Presolve terminated. Time: 0.00    
GP based matrix reordering started.
GP based matrix reordering terminated.
Optimizer  - threads                : 64              
Optimizer  - solved problem         : the primal      
Optimizer  - Constraints            : 19988           
Optimizer  - Cones                  : 0               
Optimizer  - Scalar variables       : 0                 conic                  : 0               
Optimizer  - Semi-definite variables: 1999              scalarized             : 41968           
Factor     - setup time             : 0.03            
Factor     - dense det. time        : 0.00              GP order time          : 0.01            
Factor     - nonzeros before factor : 1.90e+05          after factor           : 1.90e+05        
Factor     - dense dim.             : 0                 flops                  : 4.72e+06        
ITE PFEAS    DFEAS    GFEAS    PRSTATUS   POBJ              DOBJ              MU       TIME  
0   1.9e+00  1.0e+00  2.0e+03  0.00e+00   1.999000000e+03   0.000000000e+00   1.0e+00  0.05  
1   5.3e-01  2.7e-01  1.1e+02  1.12e+00   3.348119907e+02   -9.479348284e+01  2.7e-01  0.08  
2   3.4e-01  1.7e-01  5.4e+01  1.89e+00   1.385480092e+02   -6.688830945e+01  1.7e-01  0.11  
3   1.7e-01  8.5e-02  1.6e+01  1.85e+00   3.955547198e+01   -3.169905536e+01  8.5e-02  0.14  
4   1.4e-01  7.2e-02  1.2e+01  1.65e+00   3.096820607e+01   -2.420061940e+01  7.2e-02  0.17  
5   8.4e-02  4.3e-02  5.5e+00  1.56e+00   1.618545722e+01   -1.211997626e+01  4.3e-02  0.20  
6   4.6e-02  2.4e-02  2.2e+00  1.38e+00   8.320139651e+00   -5.643336805e+00  2.4e-02  0.23  
7   3.0e-02  1.5e-02  1.1e+00  1.27e+00   5.443538897e+00   -3.080835411e+00  1.5e-02  0.26  
8   1.4e-02  7.0e-03  3.2e-01  1.20e+00   2.981274007e+00   -6.341166477e-01  7.0e-03  0.29  
9   7.6e-03  3.9e-03  1.3e-01  1.11e+00   2.236009388e+00   2.678301641e-01   3.9e-03  0.32  
10  3.8e-03  1.9e-03  4.6e-02  1.04e+00   1.828288163e+00   8.453913201e-01   1.9e-03  0.35  
11  1.9e-03  9.8e-04  1.8e-02  9.31e-01   1.662000958e+00   1.134293679e+00   9.8e-04  0.38  
12  1.1e-03  5.4e-04  8.6e-03  7.02e-01   1.626600200e+00   1.274729064e+00   5.4e-04  0.41  
13  5.2e-04  2.7e-04  4.6e-03  2.75e-01   1.709978439e+00   1.433621005e+00   2.7e-04  0.44  
14  1.6e-04  8.1e-05  1.4e-03  -9.15e-04  2.052594804e+00   1.901891186e+00   8.1e-05  0.47  
15  7.8e-05  4.0e-05  4.7e-04  8.01e-01   2.224451658e+00   2.148203753e+00   4.0e-05  0.50  
16  5.4e-05  2.8e-05  2.8e-04  8.59e-01   2.280162407e+00   2.225843627e+00   2.8e-05  0.53  
17  8.8e-06  4.5e-06  1.8e-05  8.97e-01   2.408749350e+00   2.399603815e+00   4.5e-06  0.56  
18  1.2e-06  6.2e-07  9.5e-07  9.80e-01   2.433103032e+00   2.431838452e+00   6.2e-07  0.59  
19  2.8e-07  1.5e-07  1.1e-07  9.96e-01   2.436185935e+00   2.435887034e+00   1.5e-07  0.62  
20  5.4e-08  2.8e-08  9.1e-09  9.99e-01   2.436975001e+00   2.436917918e+00   2.8e-08  0.65  
21  7.4e-09  4.7e-09  4.6e-10  1.00e+00   2.437141809e+00   2.437134009e+00   3.8e-09  0.68  
22  9.8e-10  1.2e-09  2.2e-11  1.00e+00   2.437165175e+00   2.437164146e+00   5.0e-10  0.71  
23  1.2e-10  3.2e-09  9.6e-13  1.00e+00   2.437168336e+00   2.437168208e+00   6.2e-11  0.74  
24  2.5e-11  3.5e-08  6.2e-14  1.00e+00   2.437168719e+00   2.437168698e+00   1.0e-11  0.77  
Optimizer terminated. Time: 0.78    


Interior-point solution summary
  Problem status  : PRIMAL_AND_DUAL_FEASIBLE
  Solution status : OPTIMAL
  Primal.  obj: 2.4371687188e+00    nrm: 1e+00    Viol.  con: 3e-11    barvar: 0e+00  
  Dual.    obj: 2.4371686983e+00    nrm: 1e+01    Viol.  con: 0e+00    barvar: 1e-14  
Optimizer summary
  Optimizer                 -                        time: 0.78    
    Interior-point          - iterations : 24        time: 0.77    
      Basis identification  -                        time: 0.00    
        Primal              - iterations : 0         time: 0.00    
        Dual                - iterations : 0         time: 0.00    
        Clean primal        - iterations : 0         time: 0.00    
        Clean dual          - iterations : 0         time: 0.00    
    Simplex                 -                        time: 0.00    
      Primal simplex        - iterations : 0         time: 0.00    
      Dual simplex          - iterations : 0         time: 0.00    
    Mixed integer           - relaxations: 0         time: 0.00